22
5 9
5 8
5 11
5 17
9 20
9 3
9 13
4 7
4 14
4 15
4 21
7 0
7 16
7 8
14 17
14 0
14 11
17 1
17 20
2 18
2 8
2 6
2 3
18 16
18 21
18 1
8 6
0 19
0 6
1 15
1 12
20 19
20 10
15 6
15 21
16 13
16 10
11 19
11 12
19 13
13 21
3 10
3 12
10 12
